Route 1: 0 56 83 41 64 86 18 3 37 0
Route 2: 0 67 26 70 6 48 76 100 77 89 72 0
Route 3: 0 12 65 31 44 58 8 61 22 29 0
Route 4: 0 15 2 79 81 23 13 53 5 10 0
Route 5: 0 46 24 59 38 73 47 50 68 92 66 0
Route 6: 0 43 84 33 25 36 21 0
Route 7: 0 57 28 91 35 97 1 78 0
Route 8: 0 87 42 52 4 20 60 19 82 0
Route 9: 0 27 14 11 99 75 71 88 16 34 30 51 17 0
Route 10: 0 32 9 63 80 40 85 74 54 90 69 98 95 0
Route 11: 0 55 7 45 94 49 62 96 39 93 0
